(set-logic ALL)
(declare-fun var0 () String)
(assert (str.in_re var0 (re.++ (re.* (re.union (str.to_re "000") (str.to_re "1"))) (re.++ (re.+ (re.* (str.to_re "222"))) (re.++ (re.union (re.* (str.to_re "333")) (re.* (str.to_re "4"))) (re.++ (re.union (re.+ (str.to_re "55")) (re.+ (str.to_re "6"))) (re.++ (re.+ (re.+ (str.to_re "7"))) (re.++ (re.union (re.union (str.to_re "888") (str.to_re "9")) (re.union (str.to_re "aa") (str.to_re "bbb"))) (re.++ (re.* (re.union (str.to_re "ccc") (str.to_re "dd"))) (re.++ (re.* (re.union (str.to_re "ee") (str.to_re "fff"))) (re.++ (re.+ (re.* (str.to_re "ggg"))) (re.* (re.+ (str.to_re "h"))))))))))))))
(assert (<= 151 (str.len var0)))
(check-sat)